0,50,29,24,26,0
0,61,16,86,17,45,46,8,0
0,2,57,15,87,14,44,38,43,0
0,33,51,81,78,34,35,71,65,66,0
0,31,88,7,82,48,47,36,49,64,0
0,41,22,75,23,67,25,55,4,54,0
0,30,62,19,11,63,90,32,10,70,0
0,95,6,94,89,18,60,83,84,5,96,0
0,69,76,12,80,68,77,3,79,9,20,1,0
0,52,27,28,53,40,21,73,72,74,56,39,0
0,92,59,99,93,85,91,100,98,37,42,97,13,58,0
